n_res = 4;
rc = [ 14, 13, 12, 13 ];
n_tasks = 30;
d = [ 6, 5, 8, 8, 10, 10, 6, 2, 1, 7, 1, 2, 4, 2, 10, 8, 3, 4, 1, 2, 6, 6, 5, 8, 9, 6, 3, 4, 8, 8 ];
rr = [| 0, 1, 0, 8, 10, 0, 10, 0, 0, 0, 8, 3, 2, 0, 9, 10, 0, 2, 8, 1, 0, 6, 0, 3, 0, 9, 0, 2, 5, 0
      | 7, 10, 6, 9, 10, 9, 6, 0, 0, 0, 0, 0, 0, 4, 0, 0, 4, 0, 1, 6, 0, 0, 0, 1, 0, 0, 2, 0, 8, 0
      | 10, 0, 0, 0, 0, 0, 0, 0, 6, 7, 5, 7, 3, 3, 0, 0, 0, 3, 8, 0, 0, 0, 0, 0, 6, 8, 9, 0, 0, 0
      | 0, 4, 5, 0, 4, 0, 0, 3, 2, 0, 10, 0, 0, 0, 10, 0, 7, 9, 0, 0, 10, 7, 8, 0, 3, 1, 5, 10, 10, 4 |];
suc = [ { 2 }, 
        { 3 }, 
        { 4 }, 
        { 5 }, 
        { 6 }, 
        { 7 }, 
        { 8 }, 
        { 9 }, 
        { 10 }, 
        { 11 }, 
        { 12 }, 
        { 13 }, 
        { 14 }, 
        { 15 }, 
        { 16 }, 
        { 17 }, 
        { 18 }, 
        { 19 }, 
        { 20 }, 
        { 21 }, 
        { 22 }, 
        { 23 }, 
        { 24 }, 
        { 25 }, 
        { 26 }, 
        { 27 }, 
        { 28 }, 
        { 29 }, 
        { 30 }, 
        {  }]; 
